\ Model Cl_40_Ins_1.lp
\ LP format - for model browsing. Use MPS format to capture full model detail.
Maximize
 
Subject To
 obj1: y[0] = 0
 obj2: y[1] = 0
 obj1_Exp: - y[0] + 99 x[0] + 94 x[1] + 94 x[2] + 92 x[3] + 90 x[4]
   + 86 x[5] + 82 x[6] + 82 x[7] + 68 x[8] + 64 x[9] + 61 x[10] + 59 x[11]
   + 59 x[12] + 59 x[13] + 56 x[14] + 56 x[15] + 55 x[16] + 54 x[17]
   + 51 x[18] + 50 x[19] + 49 x[20] + 47 x[21] + 46 x[22] + 46 x[23]
   + 33 x[24] + 33 x[25] + 31 x[26] + 30 x[27] + 30 x[28] + 29 x[29]
   + 28 x[30] + 26 x[31] + 25 x[32] + 13 x[33] + 12 x[34] + 11 x[35]
   + 10 x[36] + 7 x[37] + 3 x[38] + 3 x[39] = 0
 obj2_Exp: - y[1] + 88 x[0] + 92 x[1] + 46 x[2] + 76 x[3] + 74 x[4]
   + 47 x[5] + 58 x[6] + 66 x[7] + 17 x[8] + 56 x[9] + 76 x[10] + 37 x[11]
   + 88 x[12] + 82 x[13] + 65 x[14] + 25 x[15] + 97 x[16] + 52 x[17]
   + 21 x[18] + 45 x[19] + 52 x[20] + 5 x[21] + 51 x[22] + 86 x[23]
   + 20 x[24] + 29 x[25] + 40 x[26] + 44 x[27] + 38 x[28] + 71 x[29]
   + 57 x[30] + 85 x[31] + 52 x[32] + 13 x[33] + 29 x[34] + 8 x[35]
   + 73 x[36] + 66 x[37] + 2 x[38] + 60 x[39] = 0
 Budget: 109 x[0] + 104 x[1] + 104 x[2] + 102 x[3] + 100 x[4] + 96 x[5]
   + 92 x[6] + 92 x[7] + 78 x[8] + 74 x[9] + 71 x[10] + 69 x[11] + 69 x[12]
   + 69 x[13] + 66 x[14] + 66 x[15] + 65 x[16] + 64 x[17] + 61 x[18]
   + 60 x[19] + 59 x[20] + 57 x[21] + 56 x[22] + 56 x[23] + 43 x[24]
   + 43 x[25] + 41 x[26] + 40 x[27] + 40 x[28] + 39 x[29] + 38 x[30]
   + 36 x[31] + 35 x[32] + 23 x[33] + 22 x[34] + 21 x[35] + 20 x[36]
   + 17 x[37] + 13 x[38] + 13 x[39] <= 901
Bounds
Binaries
 x[0] x[1] x[2] x[3] x[4] x[5] x[6] x[7] x[8] x[9] x[10] x[11] x[12] x[13]
 x[14] x[15] x[16] x[17] x[18] x[19] x[20] x[21] x[22] x[23] x[24] x[25]
 x[26] x[27] x[28] x[29] x[30] x[31] x[32] x[33] x[34] x[35] x[36] x[37]
 x[38] x[39]
Generals
 y[0] y[1]
End
